Mack/Bortfeldt(2008)
Bin-Packing-Problem
BP-RG/SBSBPP/SSSCSP
Testcase-ID	3
Problem-ID	12
no_item_types	5
no_items	1184
CONTAINER_DATA (l,w,h)	485	131	118
ITEMS_DATA:
Type	x	y	z	no_items
1	103	76	64	250
2	95	70	62	240
3	111	49	26	218
4	60	51	41	256
5	49	25	21	220
